c FILE /home/rafael/Documents/HappySet/MIHS/inputs/happygen/output/graph_d_regular_k7_p0.4_v50_20241127_082649.txt
c SOURCE This is a d-regular graph formed for the happy graph colouring problem.
c DESCRIPTION It was generated using the problem generator of Rhyd Lewis
c
c GRAPH STATS
c Seed                             = -1275582653
c Number of Nodes                  = 50
c Number of colours k              = 7
c Number of pre-assignments        = 20
c Degree of all vertices           = 6
c Density                          = 0.122449
c 
c The degrees of nodes 1 to 50, respectively, are as follows 
c [6, 6, 6, 6, 6, 6, 6, 6, 6, 6, 6, 6, 6, 6, 6, 6, 6, 6, 6, 6, 6, 6, 6, 6, 6, 6, 
c  6, 6, 6, 6, 6, 6, 6, 6, 6, 6, 6, 6, 6, 6, 6, 6, 6, 6, 6, 6, 6, 6, 6, 6] 
c  
p edge 50 150 7
e 1 16
e 1 17
e 1 24
e 1 28
e 1 30
e 1 31
e 2 16
e 2 22
e 2 35
e 2 39
e 2 46
e 2 49
e 3 4
e 3 7
e 3 12
e 3 13
e 3 35
e 3 43
e 4 7
e 4 13
e 4 33
e 4 40
e 4 50
e 5 6
e 5 10
e 5 28
e 5 29
e 5 38
e 5 44
e 6 24
e 6 29
e 6 36
e 6 45
e 6 49
e 7 9
e 7 14
e 7 26
e 7 31
e 8 19
e 8 20
e 8 27
e 8 31
e 8 38
e 8 46
e 9 16
e 9 20
e 9 29
e 9 33
e 9 44
e 10 12
e 10 20
e 10 21
e 10 28
e 10 48
e 11 15
e 11 17
e 11 26
e 11 34
e 11 43
e 11 48
e 12 16
e 12 35
e 12 36
e 12 40
e 13 23
e 13 24
e 13 31
e 13 45
e 14 18
e 14 25
e 14 28
e 14 36
e 14 37
e 15 18
e 15 20
e 15 21
e 15 27
e 15 48
e 16 43
e 16 45
e 17 39
e 17 42
e 17 45
e 17 47
e 18 25
e 18 35
e 18 40
e 18 48
e 19 22
e 19 32
e 19 36
e 19 44
e 19 48
e 20 22
e 20 45
e 21 23
e 21 25
e 21 37
e 21 41
e 22 29
e 22 34
e 22 41
e 23 34
e 23 37
e 23 38
e 23 46
e 24 29
e 24 41
e 24 47
e 25 27
e 25 30
e 25 40
e 26 33
e 26 38
e 26 46
e 26 49
e 27 31
e 27 43
e 27 49
e 28 42
e 28 50
e 29 49
e 30 40
e 30 46
e 30 48
e 30 50
e 31 39
e 32 33
e 32 41
e 32 42
e 32 44
e 32 49
e 33 34
e 33 41
e 34 42
e 34 47
e 35 39
e 35 42
e 36 40
e 36 47
e 37 39
e 37 44
e 37 47
e 38 39
e 38 44
e 41 50
e 42 50
e 43 46
e 43 47
e 45 50
n 1 3
n 2 6
n 5 1
n 6 1
n 7 2
n 12 6
n 14 2
n 20 7
n 21 2
n 27 4
n 33 5
n 34 5
n 35 6
n 38 1
n 40 6
n 44 1
n 46 6
n 47 5
n 48 5
n 50 7
